2451.73 0
0 62 35 54 38 56 0
0 17 99 18 22 14 55 57 0
0 11 97 93 89 88 94 98 95 0
0 19 24 92 90 0
0 53 59 49 44 29 30 43 63 76 0
0 21 16 4 5 7 86 84 87 60 41 39 47 48 34 37 46 32 0
0 27 13 100 6 8 3 15 12 0
0 25 64 65 66 50 82 81 85 0
0 72 70 73 74 75 96 91 0
0 52 61 51 80 79 78 77 69 71 0
0 20 26 23 10 1 2 9 83 68 58 67 28 40 33 31 36 42 45 0